# Solution for model MIP
# Objective value = -743
P(1,6) 0
P(1,8) 0
P(1,13) 0
P(1,30) 0
P(2,6) 0
P(2,8) 0
P(2,13) 0
P(2,30) 0
P(3,7) 0
P(3,11) 0
P(3,12) 0
P(3,16) 0
P(3,17) 0
P(3,20) 0
P(3,21) 0
P(3,24) 0
P(3,27) 0
P(4,11) 0
P(4,12) 0
P(4,16) 0
P(4,17) 0
P(4,20) 0
P(4,21) 0
P(4,24) 0
P(4,27) 0
P(5,13) 0
P(5,30) 1
P(6,10) 0
P(6,11) 0
P(6,12) 0
P(6,16) 0
P(6,17) 0
P(6,18) 0
P(6,19) 0
P(6,20) 0
P(6,21) 0
P(6,22) 0
P(6,23) 0
P(6,24) 0
P(6,26) 0
P(6,27) 0
P(6,29) 1
P(7,13) 0
P(7,14) 0
P(7,15) 0
P(7,25) 0
P(7,28) 1
P(7,30) 0
P(8,12) 0
P(8,16) 0
P(8,17) 0
P(8,18) 0
P(8,19) 0
P(8,20) 0
P(8,21) 0
P(8,22) 0
P(8,23) 0
P(8,24) 0
P(8,26) 0
P(8,27) 1
P(8,29) 0
P(9,16) 0
P(9,17) 0
P(9,20) 0
P(9,21) 0
P(9,24) 0
P(9,27) 0
P(10,30) 0
P(11,15) 0
P(11,25) 0
P(11,28) 0
P(11,30) 0
P(12,25) 0
P(12,28) 0
P(12,30) 0
P(13,17) 0
P(13,18) 0
P(13,19) 0
P(13,20) 0
P(13,21) 0
P(13,22) 1
P(13,23) 0
P(13,24) 0
P(13,26) 0
P(13,27) 0
P(13,29) 0
P(14,20) 0
P(14,21) 1
P(14,24) 0
P(14,27) 0
P(15,20) 1
P(15,21) 0
P(15,24) 0
P(15,27) 0
P(16,25) 0
P(16,28) 0
P(16,30) 0
P(17,25) 0
P(17,28) 0
P(17,30) 0
P(18,30) 0
P(19,30) 0
P(20,25) 0
P(20,28) 0
P(20,30) 0
P(21,25) 0
P(21,28) 0
P(21,30) 0
P(22,30) 0
P(23,30) 0
P(24,28) 0
P(24,30) 0
P(26,30) 0
Q(2,8) 0
F(2,8) 0
Q(2,13) 0
F(2,13) 0
Q(3,12) 0
F(3,12) 0
Q(3,17) 0
F(3,17) 0
Q(3,21) 0
F(3,21) 0
Q(5,13) 0
F(5,13) 0
Q(5,30) 1
F(5,30) 1
Q(6,16) 0
F(6,16) 0
Q(6,26) 0
F(6,26) 0
Q(6,29) 1
F(6,29) 0
Q(7,13) 0
F(7,13) 0
Q(7,25) 0
F(7,25) 0
Q(7,28) 1
F(7,28) 0
Q(7,30) 0
F(7,30) 0
Q(8,17) 0
F(8,17) 0
Q(8,18) 0
F(8,18) 0
Q(8,21) 0
F(8,21) 0
Q(8,22) 0
F(8,22) 0
Q(12,25) 0
F(12,25) 0
Q(12,28) 0
F(12,28) 0
Q(12,30) 0
F(12,30) 0
Q(13,21) 0
F(13,21) 0
Q(13,22) 1
F(13,22) 0
Q(14,21) 1
F(14,21) 0
L(2,8) 0
L(2,13) 0
L(3,12) 0
L(3,17) 0
L(3,21) 0
L(5,13) 0
L(6,16) 0
L(6,26) 0
L(6,29) 0
L(7,13) 0
L(7,25) 0
L(7,28) 1
L(8,17) 0
L(8,18) 0
L(8,21) 0
L(8,22) 0
L(12,25) 0
L(12,28) 0
L(13,21) 0
L(13,22) 0
L(14,21) 1
X(1) 1
X(2) 1
X(3) 1
X(4) 1
X(5) 1
X(6) 1
X(7) 1
X(8) 1
X(9) 1
X(10) 1
X(11) 1
X(12) 1
X(13) 1
X(14) 1
X(15) 0
X(16) 1
X(17) 1
X(18) 1
X(19) 1
X(20) 0
X(21) 1
X(22) 0
X(23) 1
X(24) 1
X(25) 1
X(26) 1
X(27) 1
X(28) 1
X(29) 1
Y(1) 1
Y(2) 1
Y(3) 1
Y(4) 1
Y(5) 0
Y(6) 1
Y(7) 0
Y(8) 0
Y(9) 1
Y(10) 1
Y(11) 1
Y(12) 1
Y(13) 0
Y(14) 0
Y(15) 1
Y(16) 1
Y(17) 1
Y(18) 1
Y(19) 1
Y(20) 1
Y(21) 0
Y(22) 0
Y(23) 1
Y(24) 1
Y(25) 1
Y(26) 1
Y(27) 0
Y(28) 0
Y(29) 0
Z(1) 1
Z(2) 1
Z(3) 1
Z(4) 1
Z(5) 0
Z(6) 1
Z(7) 1
Z(8) 1
Z(9) 1
Z(10) 1
Z(11) 1
Z(12) 1
Z(13) 1
Z(14) 1
Z(15) 1
Z(16) 1
Z(17) 1
Z(18) 1
Z(19) 1
Z(20) 1
Z(21) 1
Z(22) 0
Z(23) 1
Z(24) 1
Z(25) 1
Z(26) 1
Z(27) 1
Z(28) 1
Z(29) 1
H(1,6) 0
H(1,8) 0
H(1,13) 0
H(2,6) 0
H(2,8) 0
H(2,13) 0
H(3,7) 0
H(3,11) 0
H(3,12) 0
H(3,16) 0
H(3,17) 0
H(3,20) 0
H(3,21) 0
H(4,11) 0
H(4,12) 0
H(4,16) 0
H(4,17) 0
H(4,20) 0
H(4,21) 0
H(4,24) 0
H(5,13) 0
H(6,10) 0
H(6,11) 0
H(6,12) 0
H(6,16) 0
H(6,17) 0
H(6,18) 0
H(6,19) 0
H(6,20) 0
H(6,21) 0
H(6,22) 0
H(6,23) 0
H(6,24) 0
H(6,26) 0
H(7,13) 0
H(7,14) 0
H(7,15) 0
H(7,25) 0
H(8,12) 0
H(8,16) 0
H(8,17) 0
H(8,18) 0
H(8,19) 0
H(8,20) 0
H(8,21) 0
H(8,22) 0
H(8,23) 0
H(8,24) 0
H(8,26) 0
H(8,27) 0
H(9,16) 0
H(9,17) 0
H(9,20) 0
H(9,21) 0
H(9,24) 0
H(9,27) 0
H(10,30) 0
H(11,15) 0
H(11,25) 0
H(11,28) 0
H(11,30) 0
H(12,25) 0
H(12,28) 0
H(12,30) 0
H(13,17) 0
H(13,18) 0
H(13,19) 0
H(13,20) 0
H(13,21) 0
H(13,22) 0
H(13,23) 0
H(13,24) 0
H(13,26) 0
H(13,27) 0
H(13,29) 0
H(14,20) 0
H(14,21) 0
H(14,24) 0
H(14,27) 0
H(15,20) 1
H(15,21) 0
H(15,24) 0
H(15,27) 0
H(16,25) 0
H(16,28) 0
H(16,30) 0
H(17,25) 0
H(17,28) 0
H(17,30) 0
H(18,30) 0
H(19,30) 0
H(20,25) 0
H(20,28) 0
H(20,30) 0
H(21,25) 0
H(21,28) 0
H(21,30) 0
H(22,30) 0
H(23,30) 0
H(24,28) 0
H(24,30) 0
I(1,3,7,13) 0
I(1,3,11,13) 0
I(1,3,11,30) 0
I(1,3,12,30) 0
I(1,3,16,30) 0
I(1,3,17,30) 0
I(1,3,20,30) 0
I(1,3,21,30) 0
I(1,3,24,30) 0
I(1,3,27,30) 0
I(1,4,11,13) 0
I(1,4,11,30) 0
I(1,4,12,30) 0
I(1,4,16,30) 0
I(1,4,17,30) 0
I(1,4,20,30) 0
I(1,4,21,30) 0
I(1,4,24,30) 0
I(1,4,27,30) 0
I(1,5,13,30) 0
I(1,6,10,13) 0
I(1,6,10,30) 0
I(1,6,11,13) 0
I(1,6,11,30) 0
I(1,6,12,30) 0
I(1,6,16,30) 0
I(1,6,17,30) 0
I(1,6,18,30) 0
I(1,6,19,30) 0
I(1,6,20,30) 0
I(1,6,21,30) 0
I(1,6,22,30) 0
I(1,6,23,30) 0
I(1,6,24,30) 0
I(1,6,26,30) 0
I(1,6,27,30) 0
I(1,7,13,30) 0
I(1,7,14,30) 0
I(1,7,15,30) 0
I(1,7,25,30) 0
I(1,8,12,30) 0
I(1,8,16,30) 0
I(1,8,17,30) 0
I(1,8,18,30) 0
I(1,8,19,30) 0
I(1,8,20,30) 0
I(1,8,21,30) 0
I(1,8,22,30) 0
I(1,8,23,30) 0
I(1,8,24,30) 0
I(1,8,26,30) 0
I(1,8,27,30) 0
I(1,9,16,30) 0
I(1,9,17,30) 0
I(1,9,20,30) 0
I(1,9,21,30) 0
I(1,9,24,30) 0
I(1,9,27,30) 0
I(1,11,15,30) 0
I(1,11,25,30) 0
I(1,12,25,30) 0
I(1,13,17,30) 0
I(1,13,18,30) 0
I(1,13,19,30) 0
I(1,13,20,30) 0
I(1,13,21,30) 0
I(1,13,22,30) 0
I(1,13,23,30) 0
I(1,13,24,30) 0
I(1,13,26,30) 0
I(1,13,27,30) 0
I(1,14,20,30) 0
I(1,14,21,30) 0
I(1,14,24,30) 0
I(1,14,27,30) 0
I(1,15,20,30) 0
I(1,15,21,30) 0
I(1,15,24,30) 0
I(1,15,27,30) 0
I(1,16,25,30) 0
I(1,17,25,30) 0
I(1,20,25,30) 0
I(1,21,25,30) 0
I(2,4,11,13) 0
I(2,4,11,30) 0
I(2,4,12,30) 0
I(2,4,16,30) 0
I(2,4,17,30) 0
I(2,4,20,30) 0
I(2,4,21,30) 0
I(2,4,24,30) 0
I(2,4,27,30) 0
I(2,5,13,30) 0
I(2,6,10,13) 0
I(2,6,10,30) 0
I(2,6,11,13) 0
I(2,6,11,30) 0
I(2,6,12,30) 0
I(2,6,16,30) 0
I(2,6,17,30) 0
I(2,6,18,30) 0
I(2,6,19,30) 0
I(2,6,20,30) 0
I(2,6,21,30) 0
I(2,6,22,30) 0
I(2,6,23,30) 0
I(2,6,24,30) 0
I(2,6,26,30) 0
I(2,6,27,30) 0
I(2,7,13,30) 0
I(2,7,14,30) 0
I(2,7,15,30) 0
I(2,7,25,30) 0
I(2,8,12,30) 0
I(2,8,16,30) 0
I(2,8,17,30) 0
I(2,8,18,30) 0
I(2,8,19,30) 0
I(2,8,20,30) 0
I(2,8,21,30) 0
I(2,8,22,30) 0
I(2,8,23,30) 0
I(2,8,24,30) 0
I(2,8,26,30) 0
I(2,8,27,30) 0
I(2,9,16,30) 0
I(2,9,17,30) 0
I(2,9,20,30) 0
I(2,9,21,30) 0
I(2,9,24,30) 0
I(2,9,27,30) 0
I(2,11,15,30) 0
I(2,11,25,30) 0
I(2,12,25,30) 0
I(2,13,17,30) 0
I(2,13,18,30) 0
I(2,13,19,30) 0
I(2,13,20,30) 0
I(2,13,21,30) 0
I(2,13,22,30) 0
I(2,13,23,30) 0
I(2,13,24,30) 0
I(2,13,26,30) 0
I(2,13,27,30) 0
I(2,14,20,30) 0
I(2,14,21,30) 0
I(2,14,24,30) 0
I(2,14,27,30) 0
I(2,15,20,30) 0
I(2,15,21,30) 0
I(2,15,24,30) 0
I(2,15,27,30) 0
I(2,16,25,30) 0
I(2,17,25,30) 0
I(2,20,25,30) 0
I(2,21,25,30) 0
I(3,5,13,16) 0
I(3,5,13,17) 0
I(3,5,13,20) 0
I(3,5,13,21) 0
I(3,5,13,24) 0
I(3,5,13,27) 0
I(3,6,10,12) 0
I(3,6,10,16) 0
I(3,6,10,17) 0
I(3,6,10,20) 0
I(3,6,10,21) 0
I(3,6,10,24) 0
I(3,6,10,27) 0
I(3,6,11,16) 0
I(3,6,11,17) 0
I(3,6,11,20) 0
I(3,6,11,21) 0
I(3,6,11,24) 0
I(3,6,11,27) 0
I(3,6,12,16) 0
I(3,6,12,17) 0
I(3,6,12,20) 0
I(3,6,12,21) 0
I(3,6,12,24) 0
I(3,6,12,27) 0
I(3,6,16,20) 0
I(3,6,16,21) 0
I(3,6,16,24) 0
I(3,6,16,27) 0
I(3,6,17,20) 0
I(3,6,17,21) 0
I(3,6,17,24) 0
I(3,6,17,27) 0
I(3,6,18,20) 0
I(3,6,18,21) 0
I(3,6,18,24) 0
I(3,6,18,27) 0
I(3,6,19,21) 0
I(3,6,19,24) 0
I(3,6,19,27) 0
I(3,6,20,24) 0
I(3,6,20,27) 0
I(3,6,21,24) 0
I(3,6,21,27) 0
I(3,6,22,24) 0
I(3,6,22,27) 0
I(3,6,23,27) 0
I(3,6,24,27) 0
I(3,7,13,16) 0
I(3,7,13,17) 0
I(3,7,13,20) 0
I(3,7,13,21) 0
I(3,7,13,24) 0
I(3,7,13,27) 0
I(3,7,14,16) 0
I(3,7,14,17) 0
I(3,7,14,20) 0
I(3,7,14,21) 0
I(3,7,14,24) 0
I(3,7,14,27) 0
I(3,7,15,17) 0
I(3,7,15,20) 0
I(3,7,15,21) 0
I(3,7,15,24) 0
I(3,7,15,27) 0
I(3,7,25,27) 0
I(3,8,12,16) 0
I(3,8,12,17) 0
I(3,8,12,20) 0
I(3,8,12,21) 0
I(3,8,12,24) 0
I(3,8,12,27) 0
I(3,8,16,20) 0
I(3,8,16,21) 0
I(3,8,16,24) 0
I(3,8,16,27) 0
I(3,8,17,20) 0
I(3,8,17,21) 0
I(3,8,17,24) 0
I(3,8,17,27) 0
I(3,8,18,20) 0
I(3,8,18,21) 0
I(3,8,18,24) 0
I(3,8,18,27) 0
I(3,8,19,21) 0
I(3,8,19,24) 0
I(3,8,19,27) 0
I(3,8,20,24) 0
I(3,8,20,27) 0
I(3,8,21,24) 0
I(3,8,21,27) 0
I(3,8,22,24) 0
I(3,8,22,27) 0
I(3,8,23,27) 0
I(3,8,24,27) 0
I(3,9,16,20) 0
I(3,9,16,21) 0
I(3,9,16,24) 0
I(3,9,16,27) 0
I(3,9,17,20) 0
I(3,9,17,21) 0
I(3,9,17,24) 0
I(3,9,17,27) 0
I(3,9,20,24) 0
I(3,9,20,27) 0
I(3,9,21,24) 0
I(3,9,21,27) 0
I(3,9,24,27) 0
I(3,11,15,17) 0
I(3,11,15,20) 0
I(3,11,15,21) 0
I(3,11,15,24) 0
I(3,11,15,27) 0
I(3,11,25,27) 0
I(3,12,25,27) 0
I(3,13,17,20) 0
I(3,13,17,21) 0
I(3,13,17,24) 0
I(3,13,17,27) 0
I(3,13,18,20) 0
I(3,13,18,21) 0
I(3,13,18,24) 0
I(3,13,18,27) 0
I(3,13,19,21) 0
I(3,13,19,24) 0
I(3,13,19,27) 0
I(3,13,20,24) 0
I(3,13,20,27) 0
I(3,13,21,24) 0
I(3,13,21,27) 0
I(3,13,22,24) 0
I(3,13,22,27) 0
I(3,13,23,27) 0
I(3,13,24,27) 0
I(3,14,20,24) 0
I(3,14,20,27) 0
I(3,14,21,24) 0
I(3,14,21,27) 0
I(3,14,24,27) 0
I(3,15,20,24) 0
I(3,15,20,27) 0
I(3,15,21,24) 0
I(3,15,21,27) 0
I(3,15,24,27) 0
I(3,16,25,27) 0
I(3,17,25,27) 0
I(3,20,25,27) 0
I(3,21,25,27) 0
I(4,6,10,12) 0
I(4,6,10,16) 0
I(4,6,10,17) 0
I(4,6,10,20) 0
I(4,6,10,21) 0
I(4,6,10,24) 0
I(4,6,10,27) 0
I(4,6,11,16) 0
I(4,6,11,17) 0
I(4,6,11,20) 0
I(4,6,11,21) 0
I(4,6,11,24) 0
I(4,6,11,27) 0
I(4,6,12,16) 0
I(4,6,12,17) 0
I(4,6,12,20) 0
I(4,6,12,21) 0
I(4,6,12,24) 0
I(4,6,12,27) 0
I(4,6,16,20) 0
I(4,6,16,21) 0
I(4,6,16,24) 0
I(4,6,16,27) 0
I(4,6,17,20) 0
I(4,6,17,21) 0
I(4,6,17,24) 0
I(4,6,17,27) 0
I(4,6,18,20) 0
I(4,6,18,21) 0
I(4,6,18,24) 0
I(4,6,18,27) 0
I(4,6,19,21) 0
I(4,6,19,24) 0
I(4,6,19,27) 0
I(4,6,20,24) 0
I(4,6,20,27) 0
I(4,6,21,24) 0
I(4,6,21,27) 0
I(4,6,22,24) 0
I(4,6,22,27) 0
I(4,6,23,27) 0
I(4,6,24,27) 0
I(4,7,13,16) 0
I(4,7,13,17) 0
I(4,7,13,20) 0
I(4,7,13,21) 0
I(4,7,13,24) 0
I(4,7,13,27) 0
I(4,7,14,16) 0
I(4,7,14,17) 0
I(4,7,14,20) 0
I(4,7,14,21) 0
I(4,7,14,24) 0
I(4,7,14,27) 0
I(4,7,15,17) 0
I(4,7,15,20) 0
I(4,7,15,21) 0
I(4,7,15,24) 0
I(4,7,15,27) 0
I(4,7,25,27) 0
I(4,8,12,16) 0
I(4,8,12,17) 0
I(4,8,12,20) 0
I(4,8,12,21) 0
I(4,8,12,24) 0
I(4,8,12,27) 0
I(4,8,16,20) 0
I(4,8,16,21) 0
I(4,8,16,24) 0
I(4,8,16,27) 0
I(4,8,17,20) 0
I(4,8,17,21) 0
I(4,8,17,24) 0
I(4,8,17,27) 0
I(4,8,18,20) 0
I(4,8,18,21) 0
I(4,8,18,24) 0
I(4,8,18,27) 0
I(4,8,19,21) 0
I(4,8,19,24) 0
I(4,8,19,27) 0
I(4,8,20,24) 0
I(4,8,20,27) 0
I(4,8,21,24) 0
I(4,8,21,27) 0
I(4,8,22,24) 0
I(4,8,22,27) 0
I(4,8,23,27) 0
I(4,8,24,27) 0
I(4,9,16,20) 0
I(4,9,16,21) 0
I(4,9,16,24) 0
I(4,9,16,27) 0
I(4,9,17,20) 0
I(4,9,17,21) 0
I(4,9,17,24) 0
I(4,9,17,27) 0
I(4,9,20,24) 0
I(4,9,20,27) 0
I(4,9,21,24) 0
I(4,9,21,27) 0
I(4,9,24,27) 0
I(4,11,15,17) 0
I(4,11,15,20) 0
I(4,11,15,21) 0
I(4,11,15,24) 0
I(4,11,15,27) 0
I(4,11,25,27) 0
I(4,12,25,27) 0
I(4,13,17,20) 0
I(4,13,17,21) 0
I(4,13,17,24) 0
I(4,13,17,27) 0
I(4,13,18,20) 0
I(4,13,18,21) 0
I(4,13,18,24) 0
I(4,13,18,27) 0
I(4,13,19,21) 0
I(4,13,19,24) 0
I(4,13,19,27) 0
I(4,13,20,24) 0
I(4,13,20,27) 0
I(4,13,21,24) 0
I(4,13,21,27) 0
I(4,13,22,24) 0
I(4,13,22,27) 0
I(4,13,23,27) 0
I(4,13,24,27) 0
I(4,14,20,24) 0
I(4,14,20,27) 0
I(4,14,21,24) 0
I(4,14,21,27) 0
I(4,14,24,27) 0
I(4,15,20,24) 0
I(4,15,20,27) 0
I(4,15,21,24) 0
I(4,15,21,27) 0
I(4,15,24,27) 0
I(4,16,25,27) 0
I(4,17,25,27) 0
I(4,20,25,27) 0
I(4,21,25,27) 0
I(5,7,13,30) 0
I(5,7,14,30) 0
I(5,7,15,30) 0
I(5,7,25,30) 0
I(5,8,12,30) 0
I(5,8,16,30) 0
I(5,8,17,30) 0
I(5,8,18,30) 0
I(5,8,19,30) 0
I(5,8,20,30) 0
I(5,8,21,30) 0
I(5,8,22,30) 0
I(5,8,23,30) 0
I(5,8,24,30) 0
I(5,8,26,30) 0
I(5,8,27,30) 0
I(5,9,16,30) 0
I(5,9,17,30) 0
I(5,9,20,30) 0
I(5,9,21,30) 0
I(5,9,24,30) 0
I(5,9,27,30) 0
I(5,11,15,30) 0
I(5,11,25,30) 0
I(5,12,25,30) 0
I(5,13,17,30) 0
I(5,13,18,30) 0
I(5,13,19,30) 0
I(5,13,20,30) 0
I(5,13,21,30) 0
I(5,13,22,30) 0
I(5,13,23,30) 0
I(5,13,24,30) 0
I(5,13,26,30) 0
I(5,13,27,30) 0
I(5,14,20,30) 0
I(5,14,21,30) 0
I(5,14,24,30) 0
I(5,14,27,30) 0
I(5,15,20,30) 0
I(5,15,21,30) 0
I(5,15,24,30) 0
I(5,15,27,30) 0
I(5,16,25,30) 0
I(5,17,25,30) 0
I(5,20,25,30) 0
I(5,21,25,30) 0
I(6,8,12,16) 0
I(6,8,12,17) 0
I(6,8,12,18) 0
I(6,8,12,19) 0
I(6,8,12,20) 0
I(6,8,12,21) 0
I(6,8,12,22) 0
I(6,8,12,23) 0
I(6,8,12,24) 0
I(6,8,12,26) 0
I(6,8,12,27) 0
I(6,8,12,29) 0
I(6,8,16,18) 0
I(6,8,16,19) 0
I(6,8,16,20) 0
I(6,8,16,21) 0
I(6,8,16,22) 0
I(6,8,16,23) 0
I(6,8,16,24) 0
I(6,8,16,26) 0
I(6,8,16,27) 0
I(6,8,16,29) 0
I(6,8,17,19) 0
I(6,8,17,20) 0
I(6,8,17,21) 0
I(6,8,17,22) 0
I(6,8,17,23) 0
I(6,8,17,24) 0
I(6,8,17,26) 0
I(6,8,17,27) 0
I(6,8,17,29) 0
I(6,8,18,20) 0
I(6,8,18,21) 0
I(6,8,18,22) 0
I(6,8,18,23) 0
I(6,8,18,24) 0
I(6,8,18,26) 0
I(6,8,18,27) 0
I(6,8,18,29) 0
I(6,8,19,21) 0
I(6,8,19,22) 0
I(6,8,19,23) 0
I(6,8,19,24) 0
I(6,8,19,26) 0
I(6,8,19,27) 0
I(6,8,19,29) 0
I(6,8,20,22) 0
I(6,8,20,23) 0
I(6,8,20,24) 0
I(6,8,20,26) 0
I(6,8,20,27) 0
I(6,8,20,29) 0
I(6,8,21,23) 0
I(6,8,21,24) 0
I(6,8,21,26) 0
I(6,8,21,27) 0
I(6,8,21,29) 0
I(6,8,22,24) 0
I(6,8,22,26) 0
I(6,8,22,27) 0
I(6,8,22,29) 0
I(6,8,23,26) 0
I(6,8,23,27) 0
I(6,8,23,29) 0
I(6,8,24,26) 0
I(6,8,24,27) 0
I(6,8,24,29) 0
I(6,8,26,29) 0
I(6,8,27,29) 0
I(6,9,16,18) 0
I(6,9,16,19) 0
I(6,9,16,20) 0
I(6,9,16,21) 0
I(6,9,16,22) 0
I(6,9,16,23) 0
I(6,9,16,24) 0
I(6,9,16,26) 0
I(6,9,16,27) 0
I(6,9,16,29) 0
I(6,9,17,19) 0
I(6,9,17,20) 0
I(6,9,17,21) 0
I(6,9,17,22) 0
I(6,9,17,23) 0
I(6,9,17,24) 0
I(6,9,17,26) 0
I(6,9,17,27) 0
I(6,9,17,29) 0
I(6,9,20,22) 0
I(6,9,20,23) 0
I(6,9,20,24) 0
I(6,9,20,26) 0
I(6,9,20,27) 0
I(6,9,20,29) 0
I(6,9,21,23) 0
I(6,9,21,24) 0
I(6,9,21,26) 0
I(6,9,21,27) 0
I(6,9,21,29) 0
I(6,9,24,26) 0
I(6,9,24,27) 0
I(6,9,24,29) 0
I(6,9,27,29) 0
I(6,11,15,17) 0
I(6,11,15,18) 0
I(6,11,15,19) 0
I(6,11,15,20) 0
I(6,11,15,21) 0
I(6,11,15,22) 0
I(6,11,15,23) 0
I(6,11,15,24) 0
I(6,11,15,26) 0
I(6,11,15,27) 0
I(6,11,15,29) 0
I(6,11,25,27) 0
I(6,11,25,29) 0
I(6,12,25,27) 0
I(6,12,25,29) 0
I(6,13,17,19) 0
I(6,13,17,20) 0
I(6,13,17,21) 0
I(6,13,17,22) 0
I(6,13,17,23) 0
I(6,13,17,24) 0
I(6,13,17,26) 0
I(6,13,17,27) 0
I(6,13,17,29) 0
I(6,13,18,20) 0
I(6,13,18,21) 0
I(6,13,18,22) 0
I(6,13,18,23) 0
I(6,13,18,24) 0
I(6,13,18,26) 0
I(6,13,18,27) 0
I(6,13,18,29) 0
I(6,13,19,21) 0
I(6,13,19,22) 0
I(6,13,19,23) 0
I(6,13,19,24) 0
I(6,13,19,26) 0
I(6,13,19,27) 0
I(6,13,19,29) 0
I(6,13,20,22) 0
I(6,13,20,23) 0
I(6,13,20,24) 0
I(6,13,20,26) 0
I(6,13,20,27) 0
I(6,13,20,29) 0
I(6,13,21,23) 0
I(6,13,21,24) 0
I(6,13,21,26) 0
I(6,13,21,27) 0
I(6,13,21,29) 0
I(6,13,22,24) 0
I(6,13,22,26) 0
I(6,13,22,27) 0
I(6,13,22,29) 0
I(6,13,23,26) 0
I(6,13,23,27) 0
I(6,13,23,29) 0
I(6,13,24,26) 0
I(6,13,24,27) 0
I(6,13,24,29) 0
I(6,13,26,29) 0
I(6,13,27,29) 0
I(6,14,20,22) 0
I(6,14,20,23) 0
I(6,14,20,24) 0
I(6,14,20,26) 0
I(6,14,20,27) 0
I(6,14,20,29) 0
I(6,14,21,23) 0
I(6,14,21,24) 0
I(6,14,21,26) 0
I(6,14,21,27) 0
I(6,14,21,29) 0
I(6,14,24,26) 0
I(6,14,24,27) 0
I(6,14,24,29) 0
I(6,14,27,29) 0
I(6,15,20,22) 0
I(6,15,20,23) 0
I(6,15,20,24) 0
I(6,15,20,26) 0
I(6,15,20,27) 0
I(6,15,20,29) 0
I(6,15,21,23) 0
I(6,15,21,24) 0
I(6,15,21,26) 0
I(6,15,21,27) 0
I(6,15,21,29) 0
I(6,15,24,26) 0
I(6,15,24,27) 0
I(6,15,24,29) 0
I(6,15,27,29) 0
I(6,16,25,27) 0
I(6,16,25,29) 0
I(6,17,25,27) 0
I(6,17,25,29) 0
I(6,20,25,27) 0
I(6,20,25,29) 0
I(6,21,25,27) 0
I(6,21,25,29) 0
I(7,9,16,25) 0
I(7,9,16,28) 0
I(7,9,16,30) 0
I(7,9,17,25) 0
I(7,9,17,28) 0
I(7,9,17,30) 0
I(7,9,20,25) 0
I(7,9,20,28) 0
I(7,9,20,30) 0
I(7,9,21,25) 0
I(7,9,21,28) 0
I(7,9,21,30) 0
I(7,9,24,28) 0
I(7,9,24,30) 0
I(7,9,27,30) 0
I(7,11,15,25) 0
I(7,11,15,28) 0
I(7,11,15,30) 0
I(7,11,25,28) 0
I(7,11,25,30) 0
I(7,12,25,28) 0
I(7,12,25,30) 0
I(7,13,17,25) 0
I(7,13,17,28) 0
I(7,13,17,30) 0
I(7,13,18,25) 0
I(7,13,18,28) 0
I(7,13,18,30) 0
I(7,13,19,25) 0
I(7,13,19,28) 0
I(7,13,19,30) 0
I(7,13,20,25) 0
I(7,13,20,28) 0
I(7,13,20,30) 0
I(7,13,21,25) 0
I(7,13,21,28) 0
I(7,13,21,30) 0
I(7,13,22,25) 0
I(7,13,22,28) 0
I(7,13,22,30) 0
I(7,13,23,25) 0
I(7,13,23,28) 0
I(7,13,23,30) 0
I(7,13,24,28) 0
I(7,13,24,30) 0
I(7,13,26,28) 0
I(7,13,26,30) 0
I(7,13,27,30) 0
I(7,14,20,25) 0
I(7,14,20,28) 0
I(7,14,20,30) 0
I(7,14,21,25) 0
I(7,14,21,28) 0
I(7,14,21,30) 0
I(7,14,24,28) 0
I(7,14,24,30) 0
I(7,14,27,30) 0
I(7,15,20,25) 0
I(7,15,20,28) 0
I(7,15,20,30) 0
I(7,15,21,25) 0
I(7,15,21,28) 0
I(7,15,21,30) 0
I(7,15,24,28) 0
I(7,15,24,30) 0
I(7,15,27,30) 0
I(7,16,25,28) 0
I(7,16,25,30) 0
I(7,17,25,28) 0
I(7,17,25,30) 0
I(7,20,25,28) 0
I(7,20,25,30) 0
I(7,21,25,28) 0
I(7,21,25,30) 0
I(8,11,15,17) 0
I(8,11,15,18) 0
I(8,11,15,19) 0
I(8,11,15,20) 0
I(8,11,15,21) 0
I(8,11,15,22) 0
I(8,11,15,23) 0
I(8,11,15,24) 0
I(8,11,15,26) 0
I(8,11,15,27) 0
I(8,11,15,29) 0
I(8,11,25,27) 0
I(8,11,25,29) 0
I(8,12,25,27) 0
I(8,12,25,29) 0
I(8,13,17,19) 0
I(8,13,17,20) 0
I(8,13,17,21) 0
I(8,13,17,22) 0
I(8,13,17,23) 0
I(8,13,17,24) 0
I(8,13,17,26) 0
I(8,13,17,27) 0
I(8,13,17,29) 0
I(8,13,18,20) 0
I(8,13,18,21) 0
I(8,13,18,22) 0
I(8,13,18,23) 0
I(8,13,18,24) 0
I(8,13,18,26) 0
I(8,13,18,27) 0
I(8,13,18,29) 0
I(8,13,19,21) 0
I(8,13,19,22) 0
I(8,13,19,23) 0
I(8,13,19,24) 0
I(8,13,19,26) 0
I(8,13,19,27) 0
I(8,13,19,29) 0
I(8,13,20,22) 0
I(8,13,20,23) 0
I(8,13,20,24) 0
I(8,13,20,26) 0
I(8,13,20,27) 0
I(8,13,20,29) 0
I(8,13,21,23) 0
I(8,13,21,24) 0
I(8,13,21,26) 0
I(8,13,21,27) 0
I(8,13,21,29) 0
I(8,13,22,24) 0
I(8,13,22,26) 0
I(8,13,22,27) 1
I(8,13,22,29) 0
I(8,13,23,26) 0
I(8,13,23,27) 0
I(8,13,23,29) 0
I(8,13,24,26) 0
I(8,13,24,27) 0
I(8,13,24,29) 0
I(8,13,26,29) 0
I(8,13,27,29) 0
I(8,14,20,22) 0
I(8,14,20,23) 0
I(8,14,20,24) 0
I(8,14,20,26) 0
I(8,14,20,27) 0
I(8,14,20,29) 0
I(8,14,21,23) 0
I(8,14,21,24) 0
I(8,14,21,26) 0
I(8,14,21,27) 0
I(8,14,21,29) 0
I(8,14,24,26) 0
I(8,14,24,27) 0
I(8,14,24,29) 0
I(8,14,27,29) 0
I(8,15,20,22) 0
I(8,15,20,23) 0
I(8,15,20,24) 0
I(8,15,20,26) 0
I(8,15,20,27) 0
I(8,15,20,29) 0
I(8,15,21,23) 0
I(8,15,21,24) 0
I(8,15,21,26) 0
I(8,15,21,27) 0
I(8,15,21,29) 0
I(8,15,24,26) 0
I(8,15,24,27) 0
I(8,15,24,29) 0
I(8,15,27,29) 0
I(8,16,25,27) 0
I(8,16,25,29) 0
I(8,17,25,27) 0
I(8,17,25,29) 0
I(8,20,25,27) 0
I(8,20,25,29) 0
I(8,21,25,27) 0
I(8,21,25,29) 0
I(9,11,15,17) 0
I(9,11,15,20) 0
I(9,11,15,21) 0
I(9,11,15,24) 0
I(9,11,15,27) 0
I(9,11,25,27) 0
I(9,12,25,27) 0
I(9,13,17,20) 0
I(9,13,17,21) 0
I(9,13,17,24) 0
I(9,13,17,27) 0
I(9,13,18,20) 0
I(9,13,18,21) 0
I(9,13,18,24) 0
I(9,13,18,27) 0
I(9,13,19,21) 0
I(9,13,19,24) 0
I(9,13,19,27) 0
I(9,13,20,24) 0
I(9,13,20,27) 0
I(9,13,21,24) 0
I(9,13,21,27) 0
I(9,13,22,24) 0
I(9,13,22,27) 0
I(9,13,23,27) 0
I(9,13,24,27) 0
I(9,14,20,24) 0
I(9,14,20,27) 0
I(9,14,21,24) 0
I(9,14,21,27) 0
I(9,14,24,27) 0
I(9,15,20,24) 0
I(9,15,20,27) 0
I(9,15,21,24) 0
I(9,15,21,27) 0
I(9,15,24,27) 0
I(9,16,25,27) 0
I(9,17,25,27) 0
I(9,20,25,27) 0
I(9,21,25,27) 0
I(10,12,25,30) 0
I(10,13,17,30) 0
I(10,13,18,30) 0
I(10,13,19,30) 0
I(10,13,20,30) 0
I(10,13,21,30) 0
I(10,13,22,30) 0
I(10,13,23,30) 0
I(10,13,24,30) 0
I(10,13,26,30) 0
I(10,13,27,30) 0
I(10,14,20,30) 0
I(10,14,21,30) 0
I(10,14,24,30) 0
I(10,14,27,30) 0
I(10,15,20,30) 0
I(10,15,21,30) 0
I(10,15,24,30) 0
I(10,15,27,30) 0
I(10,16,25,30) 0
I(10,17,25,30) 0
I(10,20,25,30) 0
I(10,21,25,30) 0
I(11,13,17,25) 0
I(11,13,17,28) 0
I(11,13,17,30) 0
I(11,13,18,25) 0
I(11,13,18,28) 0
I(11,13,18,30) 0
I(11,13,19,25) 0
I(11,13,19,28) 0
I(11,13,19,30) 0
I(11,13,20,25) 0
I(11,13,20,28) 0
I(11,13,20,30) 0
I(11,13,21,25) 0
I(11,13,21,28) 0
I(11,13,21,30) 0
I(11,13,22,25) 0
I(11,13,22,28) 0
I(11,13,22,30) 0
I(11,13,23,25) 0
I(11,13,23,28) 0
I(11,13,23,30) 0
I(11,13,24,28) 0
I(11,13,24,30) 0
I(11,13,26,28) 0
I(11,13,26,30) 0
I(11,13,27,30) 0
I(11,14,20,25) 0
I(11,14,20,28) 0
I(11,14,20,30) 0
I(11,14,21,25) 0
I(11,14,21,28) 0
I(11,14,21,30) 0
I(11,14,24,28) 0
I(11,14,24,30) 0
I(11,14,27,30) 0
I(11,15,20,25) 0
I(11,15,20,28) 0
I(11,15,20,30) 0
I(11,15,21,25) 0
I(11,15,21,28) 0
I(11,15,21,30) 0
I(11,15,24,28) 0
I(11,15,24,30) 0
I(11,15,27,30) 0
I(11,16,25,28) 0
I(11,16,25,30) 0
I(11,17,25,28) 0
I(11,17,25,30) 0
I(11,20,25,28) 0
I(11,20,25,30) 0
I(11,21,25,28) 0
I(11,21,25,30) 0
I(12,14,20,25) 0
I(12,14,20,28) 0
I(12,14,20,30) 0
I(12,14,21,25) 0
I(12,14,21,28) 0
I(12,14,21,30) 0
I(12,14,24,28) 0
I(12,14,24,30) 0
I(12,14,27,30) 0
I(12,15,20,25) 0
I(12,15,20,28) 0
I(12,15,20,30) 0
I(12,15,21,25) 0
I(12,15,21,28) 0
I(12,15,21,30) 0
I(12,15,24,28) 0
I(12,15,24,30) 0
I(12,15,27,30) 0
I(12,16,25,28) 0
I(12,16,25,30) 0
I(12,17,25,28) 0
I(12,17,25,30) 0
I(12,20,25,28) 0
I(12,20,25,30) 0
I(12,21,25,28) 0
I(12,21,25,30) 0
I(13,15,20,22) 0
I(13,15,20,23) 0
I(13,15,20,24) 0
I(13,15,20,26) 0
I(13,15,20,27) 0
I(13,15,20,29) 0
I(13,15,21,23) 0
I(13,15,21,24) 0
I(13,15,21,26) 0
I(13,15,21,27) 0
I(13,15,21,29) 0
I(13,15,24,26) 0
I(13,15,24,27) 0
I(13,15,24,29) 0
I(13,15,27,29) 0
I(13,16,25,27) 0
I(13,16,25,29) 0
I(13,17,25,27) 0
I(13,17,25,29) 0
I(13,20,25,27) 0
I(13,20,25,29) 0
I(13,21,25,27) 0
I(13,21,25,29) 0
I(14,16,25,27) 0
I(14,17,25,27) 0
I(14,20,25,27) 0
I(14,21,25,27) 0
I(15,17,25,27) 0
I(15,20,25,27) 0
I(15,21,25,27) 0
I(16,20,25,28) 0
I(16,20,25,30) 0
I(16,21,25,28) 0
I(16,21,25,30) 0
I(17,20,25,28) 0
I(17,20,25,30) 0
I(17,21,25,28) 0
I(17,21,25,30) 0
I(18,20,25,30) 0
I(18,21,25,30) 0
I(19,21,25,30) 0
B(1,2,6,8) 0
B(1,2,6,13) 0
B(1,2,8,13) 0
B(2,3,7,13) 0
B(2,3,11,13) 0
B(3,4,11,16) 0
B(3,4,11,17) 0
B(3,4,11,20) 0
B(3,4,11,21) 0
B(3,4,11,24) 0
B(3,4,11,27) 0
B(3,4,12,16) 0
B(3,4,12,17) 0
B(3,4,12,20) 0
B(3,4,12,21) 0
B(3,4,12,24) 0
B(3,4,12,27) 0
B(3,4,16,20) 0
B(3,4,16,21) 0
B(3,4,16,24) 0
B(3,4,16,27) 0
B(3,4,17,20) 0
B(3,4,17,21) 0
B(3,4,17,24) 0
B(3,4,17,27) 0
B(3,4,20,24) 0
B(3,4,20,27) 0
B(3,4,21,24) 0
B(3,4,21,27) 0
B(3,4,24,27) 0
B(4,5,13,16) 0
B(4,5,13,17) 0
B(4,5,13,20) 0
B(4,5,13,21) 0
B(4,5,13,24) 0
B(4,5,13,27) 0
B(5,6,10,13) 0
B(5,6,11,13) 0
B(6,7,13,16) 0
B(6,7,13,17) 0
B(6,7,13,18) 0
B(6,7,13,19) 0
B(6,7,13,20) 0
B(6,7,13,21) 0
B(6,7,13,22) 0
B(6,7,13,23) 0
B(6,7,13,24) 0
B(6,7,13,26) 0
B(6,7,13,27) 0
B(6,7,14,16) 0
B(6,7,14,17) 0
B(6,7,14,18) 0
B(6,7,14,19) 0
B(6,7,14,20) 0
B(6,7,14,21) 0
B(6,7,14,22) 0
B(6,7,14,23) 0
B(6,7,14,24) 0
B(6,7,14,26) 0
B(6,7,14,27) 0
B(6,7,15,17) 0
B(6,7,15,18) 0
B(6,7,15,19) 0
B(6,7,15,20) 0
B(6,7,15,21) 0
B(6,7,15,22) 0
B(6,7,15,23) 0
B(6,7,15,24) 0
B(6,7,15,26) 0
B(6,7,15,27) 0
B(6,7,25,27) 0
B(7,8,12,14) 0
B(7,8,12,15) 0
B(7,8,12,25) 0
B(7,8,12,28) 0
B(7,8,16,25) 0
B(7,8,16,28) 0
B(7,8,17,25) 0
B(7,8,17,28) 0
B(7,8,18,25) 0
B(7,8,18,28) 0
B(7,8,19,25) 0
B(7,8,19,28) 0
B(7,8,20,25) 0
B(7,8,20,28) 0
B(7,8,21,25) 0
B(7,8,21,28) 0
B(7,8,22,25) 0
B(7,8,22,28) 0
B(7,8,23,25) 0
B(7,8,23,28) 0
B(7,8,24,28) 0
B(7,8,26,28) 0
B(8,9,16,18) 0
B(8,9,16,19) 0
B(8,9,16,20) 0
B(8,9,16,21) 0
B(8,9,16,22) 0
B(8,9,16,23) 0
B(8,9,16,24) 0
B(8,9,16,26) 0
B(8,9,16,27) 0
B(8,9,17,19) 0
B(8,9,17,20) 0
B(8,9,17,21) 0
B(8,9,17,22) 0
B(8,9,17,23) 0
B(8,9,17,24) 0
B(8,9,17,26) 0
B(8,9,17,27) 0
B(8,9,20,22) 0
B(8,9,20,23) 0
B(8,9,20,24) 0
B(8,9,20,26) 0
B(8,9,20,27) 0
B(8,9,21,23) 0
B(8,9,21,24) 0
B(8,9,21,26) 0
B(8,9,21,27) 0
B(8,9,24,26) 0
B(8,9,24,27) 0
B(4,6,10,11) 0
B(3,6,10,11) 0
B(11,12,25,28) 0
B(4,6,11,12) 0
B(3,6,11,12) 0
B(12,13,17,25) 0
B(12,13,17,28) 0
B(12,13,18,25) 0
B(12,13,18,28) 0
B(12,13,19,25) 0
B(12,13,19,28) 0
B(12,13,20,25) 0
B(12,13,20,28) 0
B(12,13,21,25) 0
B(12,13,21,28) 0
B(12,13,22,25) 0
B(12,13,22,28) 0
B(12,13,23,25) 0
B(12,13,23,28) 0
B(12,13,24,28) 0
B(12,13,26,28) 0
B(5,8,12,13) 0
B(2,8,12,13) 0
B(2,6,12,13) 0
B(13,14,20,22) 0
B(13,14,20,23) 0
B(13,14,20,24) 0
B(13,14,20,26) 0
B(13,14,20,27) 0
B(13,14,21,23) 0
B(13,14,21,24) 0
B(13,14,21,26) 0
B(13,14,21,27) 0
B(13,14,24,26) 0
B(13,14,24,27) 0
B(14,15,20,24) 0
B(14,15,20,27) 0
B(14,15,21,24) 0
B(14,15,21,27) 0
B(14,15,24,27) 0
B(15,16,25,27) 0
B(9,11,15,16) 0
B(8,11,15,16) 0
B(6,11,15,16) 0
B(4,11,15,16) 0
B(3,11,15,16) 0
B(4,7,15,16) 0
B(3,7,15,16) 0
B(16,17,25,28) 0
B(6,9,16,17) 0
B(4,9,16,17) 0
B(3,9,16,17) 0
B(6,8,16,17) 0
B(4,8,16,17) 0
B(3,8,16,17) 0
B(4,6,16,17) 0
B(3,6,16,17) 0
B(8,13,17,18) 0
B(6,13,17,18) 0
B(6,9,17,18) 0
B(6,8,17,18) 0
B(8,13,18,19) 0
B(6,13,18,19) 0
B(6,8,18,19) 0
B(9,13,19,20) 0
B(8,13,19,20) 0
B(6,13,19,20) 0
B(4,13,19,20) 0
B(3,13,19,20) 0
B(6,8,19,20) 0
B(4,8,19,20) 0
B(3,8,19,20) 0
B(4,6,19,20) 0
B(3,6,19,20) 0
B(20,21,25,28) 0
B(13,15,20,21) 0
B(9,15,20,21) 0
B(8,15,20,21) 0
B(6,15,20,21) 0
B(4,15,20,21) 0
B(3,15,20,21) 0
B(9,14,20,21) 0
B(8,14,20,21) 0
B(6,14,20,21) 0
B(4,14,20,21) 0
B(3,14,20,21) 0
B(9,13,20,21) 0
B(8,13,20,21) 0
B(6,13,20,21) 0
B(4,13,20,21) 0
B(3,13,20,21) 0
B(6,9,20,21) 0
B(4,9,20,21) 0
B(3,9,20,21) 0
B(6,8,20,21) 0
B(4,8,20,21) 0
B(3,8,20,21) 0
B(4,6,20,21) 0
B(3,6,20,21) 0
B(13,15,21,22) 0
B(8,15,21,22) 0
B(6,15,21,22) 0
B(8,14,21,22) 0
B(6,14,21,22) 0
B(8,13,21,22) 0
B(6,13,21,22) 0
B(6,9,21,22) 0
B(6,8,21,22) 0
B(8,13,22,23) 0
B(6,13,22,23) 0
B(6,8,22,23) 0
B(9,13,23,24) 0
B(8,13,23,24) 0
B(6,13,23,24) 0
B(4,13,23,24) 0
B(3,13,23,24) 0
B(6,8,23,24) 0
B(4,8,23,24) 0
B(3,8,23,24) 0
B(4,6,23,24) 0
B(3,6,23,24) 0
B(12,15,24,25) 0
B(11,15,24,25) 0
B(7,15,24,25) 0
B(12,14,24,25) 0
B(11,14,24,25) 0
B(7,14,24,25) 0
B(11,13,24,25) 0
B(7,13,24,25) 0
B(7,9,24,25) 0
B(13,21,25,26) 0
B(8,21,25,26) 0
B(6,21,25,26) 0
B(13,20,25,26) 0
B(8,20,25,26) 0
B(6,20,25,26) 0
B(13,17,25,26) 0
B(8,17,25,26) 0
B(6,17,25,26) 0
B(13,16,25,26) 0
B(8,16,25,26) 0
B(6,16,25,26) 0
B(8,12,25,26) 0
B(6,12,25,26) 0
B(8,11,25,26) 0
B(6,11,25,26) 0
B(9,13,26,27) 0
B(8,13,26,27) 0
B(6,13,26,27) 0
B(4,13,26,27) 0
B(3,13,26,27) 0
B(6,8,26,27) 0
B(4,8,26,27) 0
B(3,8,26,27) 0
B(4,6,26,27) 0
B(3,6,26,27) 0
B(12,15,27,28) 0
B(11,15,27,28) 0
B(7,15,27,28) 0
B(12,14,27,28) 0
B(11,14,27,28) 0
B(7,14,27,28) 0
B(11,13,27,28) 0
B(7,13,27,28) 0
B(7,9,27,28) 0
